(set-logic QF_NRA)
(set-info :source |Benchmarks generated from hycomp (https://es-static.fbk.eu/tools/hycomp/). BMC instances of non-linear hybrid automata taken from: Alessandro Cimatti, Sergio Mover, Stefano Tonetta, A quantifier-free SMT encoding of non-linear hybrid automata, FMCAD 2012 and Alessandro Cimatti, Sergio Mover, Stefano Tonetta, Quantier-free encoding of invariants for Hybrid Systems, Formal Methods in System Design. This instance solves a BMC problem of depth 2 and uses the quantifier free encoding with equivalences and lemmas encoding. Contacts: Sergio Mover (mover@fbk.eu), Stefano Tonetta (tonettas@fbk.eu), Alessandro Cimatti (cimatti@fbk.eu).|)
(set-info :smt-lib-version 2.0)
(set-info :category "industrial")
(set-info :status unsat)
;; MathSAT API call trace
;; generated on Mon Mar 19 10:47:52 2012
(declare-fun b.bool_atom__AT2 () Bool)
(declare-fun b.speed_x__AT2 () Real)
(declare-fun b.speed_x__AT1 () Real)
(declare-fun b.speed_y__AT2 () Real)
(declare-fun b.time__AT1 () Real)
(declare-fun b.x__AT1 () Real)
(declare-fun b.event_is_timed__AT1 () Bool)
(declare-fun b.counter.0__AT1 () Bool)
(declare-fun b.EVENT.1__AT0 () Bool)
(declare-fun b.speed_loss__AT0 () Real)
(declare-fun b.counter.1__AT1 () Bool)
(declare-fun b.speed_x__AT0 () Real)
(declare-fun b.counter.2__AT1 () Bool)
(declare-fun b.time__AT0 () Real)
(declare-fun b.counter.2__AT0 () Bool)
(declare-fun b.counter.3__AT1 () Bool)
(declare-fun b.bool_atom__AT1 () Bool)
(declare-fun b.x__AT0 () Real)
(declare-fun b.speed_y__AT1 () Real)
(declare-fun b.delta__AT1 () Real)
(declare-fun b.bool_atom__AT0 () Bool)
(declare-fun b.y__AT0 () Real)
(declare-fun b.EVENT.1__AT1 () Bool)
(declare-fun b.EVENT.0__AT1 () Bool)
(declare-fun b.counter.0__AT0 () Bool)
(declare-fun b.delta__AT0 () Real)
(declare-fun b.counter.1__AT0 () Bool)
(declare-fun b.event_is_timed__AT2 () Bool)
(declare-fun b.y__AT1 () Real)
(declare-fun b.EVENT.0__AT0 () Bool)
(declare-fun b.time__AT2 () Real)
(declare-fun b.y__AT2 () Real)
(declare-fun b.speed_y__AT0 () Real)
(declare-fun b.delta__AT2 () Real)
(declare-fun b.counter.0__AT2 () Bool)
(declare-fun b.x__AT2 () Real)
(declare-fun b.EVENT.0__AT2 () Bool)
(declare-fun b.counter.1__AT2 () Bool)
(declare-fun b.event_is_timed__AT0 () Bool)
(declare-fun b.EVENT.1__AT2 () Bool)
(declare-fun b.counter.2__AT2 () Bool)
(declare-fun b.counter.3__AT2 () Bool)
(declare-fun b.counter.3__AT0 () Bool)
(assert (let ((.def_665 (* (- 1.0) b.speed_x__AT2)))
(let ((.def_666 (* b.speed_x__AT2 .def_665)))
(let ((.def_667 (* (- 1.0) .def_666)))
(let ((.def_695 (* 2.0 .def_667)))
(let ((.def_696 (* b.delta__AT2 .def_695)))
(let ((.def_697 (* 5.0 .def_696)))
(let ((.def_605 (* (- 1.0) b.x__AT2)))
(let ((.def_678 (* b.speed_x__AT2 .def_605)))
(let ((.def_700 (* (- 5.0) .def_678)))
(let ((.def_706 (+ .def_700 .def_697)))
(let ((.def_673 (* b.x__AT2 .def_665)))
(let ((.def_698 (* (- 5.0) .def_673)))
(let ((.def_707 (+ .def_698 .def_706)))
(let ((.def_702 (* (- 49.0) b.delta__AT2)))
(let ((.def_708 (+ .def_702 .def_707)))
(let ((.def_704 (* 5.0 b.speed_y__AT2)))
(let ((.def_709 (+ .def_704 .def_708)))
(let ((.def_728 (<= .def_709 0.0 )))
(let ((.def_729 (not .def_728)))
(let ((.def_679 (* (- 1.0) .def_678)))
(let ((.def_674 (* (- 1.0) .def_673)))
(let ((.def_712 (+ .def_674 .def_679)))
(let ((.def_713 (+ b.speed_y__AT2 .def_712)))
(let ((.def_726 (<= .def_713 0.0 )))
(let ((.def_751 (or .def_726 .def_729)))
(let ((.def_714 (<= 0.0 .def_713)))
(let ((.def_715 (not .def_714)))
(let ((.def_710 (<= 0.0 .def_709)))
(let ((.def_750 (or .def_710 .def_715)))
(let ((.def_752 (and .def_750 .def_751)))
(let ((.def_749 (<= (- (/ 49 10)) .def_666)))
(let ((.def_753 (or .def_749 .def_752)))
(let ((.def_711 (not .def_710)))
(let ((.def_746 (or .def_711 .def_714)))
(let ((.def_727 (not .def_726)))
(let ((.def_745 (or .def_727 .def_728)))
(let ((.def_747 (and .def_745 .def_746)))
(let ((.def_744 (<= .def_666 (- (/ 49 10)))))
(let ((.def_748 (or .def_744 .def_747)))
(let ((.def_754 (and .def_748 .def_753)))
(let ((.def_741 (and .def_726 .def_728)))
(let ((.def_740 (and .def_710 .def_714)))
(let ((.def_742 (or .def_740 .def_741)))
(let ((.def_680 (* b.delta__AT2 .def_679)))
(let ((.def_681 (* 10.0 .def_680)))
(let ((.def_675 (* b.delta__AT2 .def_674)))
(let ((.def_676 (* 10.0 .def_675)))
(let ((.def_687 (+ .def_676 .def_681)))
(let ((.def_664 (* b.delta__AT2 b.delta__AT2)))
(let ((.def_668 (* .def_664 .def_667)))
(let ((.def_669 (* 10.0 .def_668)))
(let ((.def_688 (+ .def_669 .def_687)))
(let ((.def_671 (* (- 49.0) .def_664)))
(let ((.def_689 (+ .def_671 .def_688)))
(let ((.def_662 (* b.speed_y__AT2 b.delta__AT2)))
(let ((.def_663 (* 10.0 .def_662)))
(let ((.def_690 (+ .def_663 .def_689)))
(let ((.def_651 (* b.x__AT2 .def_605)))
(let ((.def_683 (* (- 10.0) .def_651)))
(let ((.def_691 (+ .def_683 .def_690)))
(let ((.def_685 (* 10.0 b.y__AT2)))
(let ((.def_692 (+ .def_685 .def_691)))
(let ((.def_720 (<= .def_692 0.0 )))
(let ((.def_734 (not .def_720)))
(let ((.def_718 (<= b.y__AT2 .def_651)))
(let ((.def_735 (or .def_718 .def_734)))
(let ((.def_652 (<= .def_651 b.y__AT2)))
(let ((.def_732 (not .def_652)))
(let ((.def_693 (<= 0.0 .def_692)))
(let ((.def_733 (or .def_693 .def_732)))
(let ((.def_736 (and .def_733 .def_735)))
(let ((.def_730 (or .def_727 .def_729)))
(let ((.def_731 (not .def_730)))
(let ((.def_737 (or .def_731 .def_736)))
(let ((.def_722 (not .def_693)))
(let ((.def_723 (or .def_652 .def_722)))
(let ((.def_719 (not .def_718)))
(let ((.def_721 (or .def_719 .def_720)))
(let ((.def_724 (and .def_721 .def_723)))
(let ((.def_716 (or .def_711 .def_715)))
(let ((.def_717 (not .def_716)))
(let ((.def_725 (or .def_717 .def_724)))
(let ((.def_738 (and .def_725 .def_737)))
(let ((.def_694 (and .def_652 .def_693)))
(let ((.def_739 (and .def_694 .def_738)))
(let ((.def_743 (and .def_739 .def_742)))
(let ((.def_755 (and .def_743 .def_754)))
(let ((.def_66 (<= b.speed_loss__AT0 (/ 1 2))))
(let ((.def_63 (<= (/ 1 10) b.speed_loss__AT0)))
(let ((.def_67 (and .def_63 .def_66)))
(let ((.def_756 (and .def_67 .def_755)))
(let ((.def_278 (not b.counter.0__AT1)))
(let ((.def_656 (or b.counter.1__AT1 .def_278)))
(let ((.def_273 (not b.counter.2__AT1)))
(let ((.def_657 (or .def_273 .def_656)))
(let ((.def_658 (or b.counter.3__AT1 .def_657)))
(let ((.def_653 (and .def_67 .def_652)))
(let ((.def_648 (not b.EVENT.0__AT2)))
(let ((.def_646 (not b.EVENT.1__AT2)))
(let ((.def_649 (or .def_646 .def_648)))
(let ((.def_553 (not b.counter.1__AT2)))
(let ((.def_4 (not b.counter.0__AT2)))
(let ((.def_639 (or .def_4 .def_553)))
(let ((.def_643 (or b.counter.3__AT2 .def_639)))
(let ((.def_640 (or b.counter.2__AT2 .def_639)))
(let ((.def_8 (not b.counter.2__AT2)))
(let ((.def_638 (or .def_4 .def_8)))
(let ((.def_641 (and .def_638 .def_640)))
(let ((.def_570 (not b.counter.3__AT2)))
(let ((.def_642 (or .def_570 .def_641)))
(let ((.def_644 (and .def_642 .def_643)))
(let ((.def_650 (and .def_644 .def_649)))
(let ((.def_654 (and .def_650 .def_653)))
(let ((.def_633 (<= 0.0 b.delta__AT1)))
(let ((.def_365 (not b.EVENT.0__AT1)))
(let ((.def_363 (not b.EVENT.1__AT1)))
(let ((.def_475 (and .def_363 .def_365)))
(let ((.def_477 (not .def_475)))
(let ((.def_634 (or .def_477 .def_633)))
(let ((.def_635 (or b.EVENT.1__AT1 .def_634)))
(let ((.def_515 (= b.bool_atom__AT1 b.bool_atom__AT2)))
(let ((.def_511 (= b.counter.0__AT2 b.counter.0__AT1)))
(let ((.def_509 (= b.counter.1__AT2 b.counter.1__AT1)))
(let ((.def_507 (= b.counter.2__AT2 b.counter.2__AT1)))
(let ((.def_506 (= b.counter.3__AT2 b.counter.3__AT1)))
(let ((.def_508 (and .def_506 .def_507)))
(let ((.def_510 (and .def_508 .def_509)))
(let ((.def_512 (and .def_510 .def_511)))
(let ((.def_629 (and .def_512 .def_515)))
(let ((.def_630 (or .def_477 .def_629)))
(let ((.def_631 (or b.EVENT.1__AT1 .def_630)))
(let ((.def_617 (* (- 10.0) b.y__AT2)))
(let ((.def_381 (* b.delta__AT1 b.delta__AT1)))
(let ((.def_388 (* (- 49.0) .def_381)))
(let ((.def_621 (+ .def_388 .def_617)))
(let ((.def_379 (* b.speed_y__AT1 b.delta__AT1)))
(let ((.def_380 (* 10.0 .def_379)))
(let ((.def_622 (+ .def_380 .def_621)))
(let ((.def_402 (* 10.0 b.y__AT1)))
(let ((.def_623 (+ .def_402 .def_622)))
(let ((.def_624 (= .def_623 0.0 )))
(let ((.def_612 (* (- 5.0) b.speed_y__AT2)))
(let ((.def_419 (* (- 49.0) b.delta__AT1)))
(let ((.def_613 (+ .def_419 .def_612)))
(let ((.def_421 (* 5.0 b.speed_y__AT1)))
(let ((.def_614 (+ .def_421 .def_613)))
(let ((.def_615 (= .def_614 0.0 )))
(let ((.def_604 (* b.speed_x__AT1 b.delta__AT1)))
(let ((.def_608 (+ .def_605 .def_604)))
(let ((.def_609 (+ b.x__AT1 .def_608)))
(let ((.def_610 (= .def_609 0.0 )))
(let ((.def_501 (= b.speed_x__AT1 b.speed_x__AT2)))
(let ((.def_611 (and .def_501 .def_610)))
(let ((.def_616 (and .def_611 .def_615)))
(let ((.def_625 (and .def_616 .def_624)))
(let ((.def_626 (or .def_477 .def_625)))
(let ((.def_498 (= b.y__AT1 b.y__AT2)))
(let ((.def_495 (= b.x__AT1 b.x__AT2)))
(let ((.def_598 (and .def_495 .def_498)))
(let ((.def_599 (and .def_501 .def_598)))
(let ((.def_504 (= b.speed_y__AT1 b.speed_y__AT2)))
(let ((.def_600 (and .def_504 .def_599)))
(let ((.def_595 (= b.delta__AT1 0.0 )))
(let ((.def_596 (and .def_475 .def_595)))
(let ((.def_597 (not .def_596)))
(let ((.def_601 (or .def_597 .def_600)))
(let ((.def_602 (or b.EVENT.1__AT1 .def_601)))
(let ((.def_587 (and .def_501 .def_504)))
(let ((.def_588 (and .def_512 .def_587)))
(let ((.def_589 (or b.bool_atom__AT1 .def_588)))
(let ((.def_562 (or .def_4 b.counter.0__AT1)))
(let ((.def_561 (or b.counter.0__AT2 .def_278)))
(let ((.def_563 (and .def_561 .def_562)))
(let ((.def_564 (and .def_553 .def_563)))
(let ((.def_565 (or b.counter.1__AT1 .def_564)))
(let ((.def_268 (not b.counter.1__AT1)))
(let ((.def_560 (or b.counter.1__AT2 .def_268)))
(let ((.def_566 (and .def_560 .def_565)))
(let ((.def_578 (and .def_8 .def_566)))
(let ((.def_579 (or b.counter.2__AT1 .def_578)))
(let ((.def_573 (and .def_278 .def_553)))
(let ((.def_574 (or b.counter.1__AT1 .def_573)))
(let ((.def_575 (and .def_560 .def_574)))
(let ((.def_576 (and b.counter.2__AT2 .def_575)))
(let ((.def_577 (or .def_273 .def_576)))
(let ((.def_580 (and .def_577 .def_579)))
(let ((.def_581 (and b.counter.3__AT2 .def_580)))
(let ((.def_582 (or b.counter.3__AT1 .def_581)))
(let ((.def_567 (and b.counter.2__AT2 .def_566)))
(let ((.def_568 (or b.counter.2__AT1 .def_567)))
(let ((.def_556 (or b.counter.1__AT2 b.counter.1__AT1)))
(let ((.def_554 (and b.counter.0__AT2 .def_553)))
(let ((.def_555 (or .def_268 .def_554)))
(let ((.def_557 (and .def_555 .def_556)))
(let ((.def_558 (and .def_8 .def_557)))
(let ((.def_559 (or .def_273 .def_558)))
(let ((.def_569 (and .def_559 .def_568)))
(let ((.def_571 (and .def_569 .def_570)))
(let ((.def_287 (not b.counter.3__AT1)))
(let ((.def_572 (or .def_287 .def_571)))
(let ((.def_583 (and .def_572 .def_582)))
(let ((.def_254 (* b.speed_y__AT1 b.speed_y__AT1)))
(let ((.def_252 (* b.speed_x__AT1 b.speed_x__AT1)))
(let ((.def_545 (+ .def_252 .def_254)))
(let ((.def_240 (* (- 1.0) b.speed_loss__AT0)))
(let ((.def_241 (+ 1.0 .def_240)))
(let ((.def_257 (* .def_241 .def_241)))
(let ((.def_546 (* .def_257 .def_545)))
(let ((.def_548 (* (- 1.0) .def_546)))
(let ((.def_542 (* b.speed_y__AT2 b.speed_y__AT2)))
(let ((.def_549 (+ .def_542 .def_548)))
(let ((.def_540 (* b.speed_x__AT2 b.speed_x__AT2)))
(let ((.def_550 (+ .def_540 .def_549)))
(let ((.def_551 (= .def_550 0.0 )))
(let ((.def_533 (* b.speed_y__AT1 .def_241)))
(let ((.def_237 (* (- 2.0) b.x__AT1)))
(let ((.def_238 (* (- 1.0) .def_237)))
(let ((.def_530 (* .def_238 .def_241)))
(let ((.def_531 (* b.speed_x__AT1 .def_530)))
(let ((.def_536 (+ .def_531 .def_533)))
(let ((.def_527 (* (- 2.0) b.x__AT2)))
(let ((.def_528 (* (- 1.0) .def_527)))
(let ((.def_529 (* b.speed_x__AT2 .def_528)))
(let ((.def_537 (+ .def_529 .def_536)))
(let ((.def_538 (+ b.speed_y__AT2 .def_537)))
(let ((.def_539 (= .def_538 0.0 )))
(let ((.def_552 (and .def_539 .def_551)))
(let ((.def_584 (and .def_552 .def_583)))
(let ((.def_526 (not b.bool_atom__AT1)))
(let ((.def_585 (or .def_526 .def_584)))
(let ((.def_239 (* b.speed_x__AT1 .def_238)))
(let ((.def_521 (+ b.speed_y__AT1 .def_239)))
(let ((.def_522 (<= 0.0 .def_521)))
(let ((.def_523 (not .def_522)))
(let ((.def_322 (* (- 1.0) b.x__AT1)))
(let ((.def_368 (* b.x__AT1 .def_322)))
(let ((.def_520 (= b.y__AT1 .def_368)))
(let ((.def_524 (and .def_520 .def_523)))
(let ((.def_525 (= b.bool_atom__AT1 .def_524)))
(let ((.def_586 (and .def_525 .def_585)))
(let ((.def_590 (and .def_586 .def_589)))
(let ((.def_591 (and .def_495 .def_590)))
(let ((.def_592 (and .def_498 .def_591)))
(let ((.def_593 (or .def_475 .def_592)))
(let ((.def_594 (or b.EVENT.1__AT1 .def_593)))
(let ((.def_603 (and .def_594 .def_602)))
(let ((.def_627 (and .def_603 .def_626)))
(let ((.def_482 (= b.time__AT1 b.time__AT2)))
(let ((.def_496 (and .def_482 .def_495)))
(let ((.def_499 (and .def_496 .def_498)))
(let ((.def_502 (and .def_499 .def_501)))
(let ((.def_505 (and .def_502 .def_504)))
(let ((.def_513 (and .def_505 .def_512)))
(let ((.def_516 (and .def_513 .def_515)))
(let ((.def_517 (or .def_363 .def_516)))
(let ((.def_485 (* (- 1.0) b.time__AT2)))
(let ((.def_488 (+ b.delta__AT1 .def_485)))
(let ((.def_489 (+ b.time__AT1 .def_488)))
(let ((.def_490 (= .def_489 0.0 )))
(let ((.def_491 (or .def_477 .def_490)))
(let ((.def_492 (or b.EVENT.1__AT1 .def_491)))
(let ((.def_483 (or .def_475 .def_482)))
(let ((.def_484 (or b.EVENT.1__AT1 .def_483)))
(let ((.def_493 (and .def_484 .def_492)))
(let ((.def_518 (and .def_493 .def_517)))
(let ((.def_479 (= .def_477 b.event_is_timed__AT2)))
(let ((.def_476 (= b.event_is_timed__AT1 .def_475)))
(let ((.def_480 (and .def_476 .def_479)))
(let ((.def_519 (and .def_480 .def_518)))
(let ((.def_628 (and .def_519 .def_627)))
(let ((.def_632 (and .def_628 .def_631)))
(let ((.def_636 (and .def_632 .def_635)))
(let ((.def_637 (and .def_363 .def_636)))
(let ((.def_655 (and .def_637 .def_654)))
(let ((.def_659 (and .def_655 .def_658)))
(let ((.def_382 (* (- 1.0) b.speed_x__AT1)))
(let ((.def_383 (* b.speed_x__AT1 .def_382)))
(let ((.def_384 (* (- 1.0) .def_383)))
(let ((.def_412 (* 2.0 .def_384)))
(let ((.def_413 (* b.delta__AT1 .def_412)))
(let ((.def_414 (* 5.0 .def_413)))
(let ((.def_395 (* b.speed_x__AT1 .def_322)))
(let ((.def_417 (* (- 5.0) .def_395)))
(let ((.def_423 (+ .def_417 .def_414)))
(let ((.def_390 (* b.x__AT1 .def_382)))
(let ((.def_415 (* (- 5.0) .def_390)))
(let ((.def_424 (+ .def_415 .def_423)))
(let ((.def_425 (+ .def_419 .def_424)))
(let ((.def_426 (+ .def_421 .def_425)))
(let ((.def_445 (<= .def_426 0.0 )))
(let ((.def_446 (not .def_445)))
(let ((.def_396 (* (- 1.0) .def_395)))
(let ((.def_391 (* (- 1.0) .def_390)))
(let ((.def_429 (+ .def_391 .def_396)))
(let ((.def_430 (+ b.speed_y__AT1 .def_429)))
(let ((.def_443 (<= .def_430 0.0 )))
(let ((.def_468 (or .def_443 .def_446)))
(let ((.def_431 (<= 0.0 .def_430)))
(let ((.def_432 (not .def_431)))
(let ((.def_427 (<= 0.0 .def_426)))
(let ((.def_467 (or .def_427 .def_432)))
(let ((.def_469 (and .def_467 .def_468)))
(let ((.def_466 (<= (- (/ 49 10)) .def_383)))
(let ((.def_470 (or .def_466 .def_469)))
(let ((.def_428 (not .def_427)))
(let ((.def_463 (or .def_428 .def_431)))
(let ((.def_444 (not .def_443)))
(let ((.def_462 (or .def_444 .def_445)))
(let ((.def_464 (and .def_462 .def_463)))
(let ((.def_461 (<= .def_383 (- (/ 49 10)))))
(let ((.def_465 (or .def_461 .def_464)))
(let ((.def_471 (and .def_465 .def_470)))
(let ((.def_458 (and .def_443 .def_445)))
(let ((.def_457 (and .def_427 .def_431)))
(let ((.def_459 (or .def_457 .def_458)))
(let ((.def_397 (* b.delta__AT1 .def_396)))
(let ((.def_398 (* 10.0 .def_397)))
(let ((.def_392 (* b.delta__AT1 .def_391)))
(let ((.def_393 (* 10.0 .def_392)))
(let ((.def_404 (+ .def_393 .def_398)))
(let ((.def_385 (* .def_381 .def_384)))
(let ((.def_386 (* 10.0 .def_385)))
(let ((.def_405 (+ .def_386 .def_404)))
(let ((.def_406 (+ .def_388 .def_405)))
(let ((.def_407 (+ .def_380 .def_406)))
(let ((.def_400 (* (- 10.0) .def_368)))
(let ((.def_408 (+ .def_400 .def_407)))
(let ((.def_409 (+ .def_402 .def_408)))
(let ((.def_437 (<= .def_409 0.0 )))
(let ((.def_451 (not .def_437)))
(let ((.def_435 (<= b.y__AT1 .def_368)))
(let ((.def_452 (or .def_435 .def_451)))
(let ((.def_369 (<= .def_368 b.y__AT1)))
(let ((.def_449 (not .def_369)))
(let ((.def_410 (<= 0.0 .def_409)))
(let ((.def_450 (or .def_410 .def_449)))
(let ((.def_453 (and .def_450 .def_452)))
(let ((.def_447 (or .def_444 .def_446)))
(let ((.def_448 (not .def_447)))
(let ((.def_454 (or .def_448 .def_453)))
(let ((.def_439 (not .def_410)))
(let ((.def_440 (or .def_369 .def_439)))
(let ((.def_436 (not .def_435)))
(let ((.def_438 (or .def_436 .def_437)))
(let ((.def_441 (and .def_438 .def_440)))
(let ((.def_433 (or .def_428 .def_432)))
(let ((.def_434 (not .def_433)))
(let ((.def_442 (or .def_434 .def_441)))
(let ((.def_455 (and .def_442 .def_454)))
(let ((.def_411 (and .def_369 .def_410)))
(let ((.def_456 (and .def_411 .def_455)))
(let ((.def_460 (and .def_456 .def_459)))
(let ((.def_472 (and .def_460 .def_471)))
(let ((.def_473 (and .def_67 .def_472)))
(let ((.def_35 (not b.counter.0__AT0)))
(let ((.def_373 (or b.counter.1__AT0 .def_35)))
(let ((.def_38 (not b.counter.2__AT0)))
(let ((.def_374 (or .def_38 .def_373)))
(let ((.def_375 (or b.counter.3__AT0 .def_374)))
(let ((.def_370 (and .def_67 .def_369)))
(let ((.def_366 (or .def_363 .def_365)))
(let ((.def_356 (or .def_268 .def_278)))
(let ((.def_360 (or b.counter.3__AT1 .def_356)))
(let ((.def_357 (or b.counter.2__AT1 .def_356)))
(let ((.def_355 (or .def_273 .def_278)))
(let ((.def_358 (and .def_355 .def_357)))
(let ((.def_359 (or .def_287 .def_358)))
(let ((.def_361 (and .def_359 .def_360)))
(let ((.def_367 (and .def_361 .def_366)))
(let ((.def_371 (and .def_367 .def_370)))
(let ((.def_350 (<= 0.0 b.delta__AT0)))
(let ((.def_54 (not b.EVENT.0__AT0)))
(let ((.def_52 (not b.EVENT.1__AT0)))
(let ((.def_176 (and .def_52 .def_54)))
(let ((.def_178 (not .def_176)))
(let ((.def_351 (or .def_178 .def_350)))
(let ((.def_352 (or b.EVENT.1__AT0 .def_351)))
(let ((.def_221 (= b.bool_atom__AT0 b.bool_atom__AT1)))
(let ((.def_216 (= b.counter.0__AT0 b.counter.0__AT1)))
(let ((.def_213 (= b.counter.1__AT0 b.counter.1__AT1)))
(let ((.def_210 (= b.counter.2__AT0 b.counter.2__AT1)))
(let ((.def_208 (= b.counter.3__AT0 b.counter.3__AT1)))
(let ((.def_211 (and .def_208 .def_210)))
(let ((.def_214 (and .def_211 .def_213)))
(let ((.def_217 (and .def_214 .def_216)))
(let ((.def_346 (and .def_217 .def_221)))
(let ((.def_347 (or .def_178 .def_346)))
(let ((.def_348 (or b.EVENT.1__AT0 .def_347)))
(let ((.def_335 (* (- 10.0) b.y__AT1)))
(let ((.def_75 (* b.delta__AT0 b.delta__AT0)))
(let ((.def_84 (* (- 49.0) .def_75)))
(let ((.def_338 (+ .def_84 .def_335)))
(let ((.def_73 (* b.speed_y__AT0 b.delta__AT0)))
(let ((.def_74 (* 10.0 .def_73)))
(let ((.def_339 (+ .def_74 .def_338)))
(let ((.def_99 (* 10.0 b.y__AT0)))
(let ((.def_340 (+ .def_99 .def_339)))
(let ((.def_341 (= .def_340 0.0 )))
(let ((.def_329 (* (- 5.0) b.speed_y__AT1)))
(let ((.def_118 (* (- 49.0) b.delta__AT0)))
(let ((.def_330 (+ .def_118 .def_329)))
(let ((.def_120 (* 5.0 b.speed_y__AT0)))
(let ((.def_331 (+ .def_120 .def_330)))
(let ((.def_332 (= .def_331 0.0 )))
(let ((.def_321 (* b.speed_x__AT0 b.delta__AT0)))
(let ((.def_325 (+ .def_322 .def_321)))
(let ((.def_326 (+ b.x__AT0 .def_325)))
(let ((.def_327 (= .def_326 0.0 )))
(let ((.def_202 (= b.speed_x__AT0 b.speed_x__AT1)))
(let ((.def_328 (and .def_202 .def_327)))
(let ((.def_333 (and .def_328 .def_332)))
(let ((.def_342 (and .def_333 .def_341)))
(let ((.def_343 (or .def_178 .def_342)))
(let ((.def_199 (= b.y__AT0 b.y__AT1)))
(let ((.def_196 (= b.x__AT0 b.x__AT1)))
(let ((.def_315 (and .def_196 .def_199)))
(let ((.def_316 (and .def_202 .def_315)))
(let ((.def_205 (= b.speed_y__AT0 b.speed_y__AT1)))
(let ((.def_317 (and .def_205 .def_316)))
(let ((.def_312 (= b.delta__AT0 0.0 )))
(let ((.def_313 (and .def_176 .def_312)))
(let ((.def_314 (not .def_313)))
(let ((.def_318 (or .def_314 .def_317)))
(let ((.def_319 (or b.EVENT.1__AT0 .def_318)))
(let ((.def_304 (and .def_202 .def_205)))
(let ((.def_305 (and .def_217 .def_304)))
(let ((.def_306 (or b.bool_atom__AT0 .def_305)))
(let ((.def_279 (or b.counter.0__AT0 .def_278)))
(let ((.def_277 (or .def_35 b.counter.0__AT1)))
(let ((.def_280 (and .def_277 .def_279)))
(let ((.def_281 (and .def_268 .def_280)))
(let ((.def_282 (or b.counter.1__AT0 .def_281)))
(let ((.def_33 (not b.counter.1__AT0)))
(let ((.def_276 (or .def_33 b.counter.1__AT1)))
(let ((.def_283 (and .def_276 .def_282)))
(let ((.def_295 (and .def_273 .def_283)))
(let ((.def_296 (or b.counter.2__AT0 .def_295)))
(let ((.def_290 (and .def_35 .def_268)))
(let ((.def_291 (or b.counter.1__AT0 .def_290)))
(let ((.def_292 (and .def_276 .def_291)))
(let ((.def_293 (and b.counter.2__AT1 .def_292)))
(let ((.def_294 (or .def_38 .def_293)))
(let ((.def_297 (and .def_294 .def_296)))
(let ((.def_298 (and b.counter.3__AT1 .def_297)))
(let ((.def_299 (or b.counter.3__AT0 .def_298)))
(let ((.def_284 (and b.counter.2__AT1 .def_283)))
(let ((.def_285 (or b.counter.2__AT0 .def_284)))
(let ((.def_271 (or b.counter.1__AT0 b.counter.1__AT1)))
(let ((.def_269 (and b.counter.0__AT1 .def_268)))
(let ((.def_270 (or .def_33 .def_269)))
(let ((.def_272 (and .def_270 .def_271)))
(let ((.def_274 (and .def_272 .def_273)))
(let ((.def_275 (or .def_38 .def_274)))
(let ((.def_286 (and .def_275 .def_285)))
(let ((.def_288 (and .def_286 .def_287)))
(let ((.def_41 (not b.counter.3__AT0)))
(let ((.def_289 (or .def_41 .def_288)))
(let ((.def_300 (and .def_289 .def_299)))
(let ((.def_259 (* b.speed_y__AT0 b.speed_y__AT0)))
(let ((.def_258 (* b.speed_x__AT0 b.speed_x__AT0)))
(let ((.def_260 (+ .def_258 .def_259)))
(let ((.def_261 (* .def_257 .def_260)))
(let ((.def_263 (* (- 1.0) .def_261)))
(let ((.def_264 (+ .def_254 .def_263)))
(let ((.def_265 (+ .def_252 .def_264)))
(let ((.def_266 (= .def_265 0.0 )))
(let ((.def_245 (* b.speed_y__AT0 .def_241)))
(let ((.def_228 (* (- 2.0) b.x__AT0)))
(let ((.def_229 (* (- 1.0) .def_228)))
(let ((.def_242 (* .def_229 .def_241)))
(let ((.def_243 (* b.speed_x__AT0 .def_242)))
(let ((.def_248 (+ .def_243 .def_245)))
(let ((.def_249 (+ .def_239 .def_248)))
(let ((.def_250 (+ b.speed_y__AT1 .def_249)))
(let ((.def_251 (= .def_250 0.0 )))
(let ((.def_267 (and .def_251 .def_266)))
(let ((.def_301 (and .def_267 .def_300)))
(let ((.def_236 (not b.bool_atom__AT0)))
(let ((.def_302 (or .def_236 .def_301)))
(let ((.def_230 (* b.speed_x__AT0 .def_229)))
(let ((.def_231 (+ b.speed_y__AT0 .def_230)))
(let ((.def_232 (<= 0.0 .def_231)))
(let ((.def_233 (not .def_232)))
(let ((.def_58 (* (- 1.0) b.x__AT0)))
(let ((.def_59 (* b.x__AT0 .def_58)))
(let ((.def_226 (= b.y__AT0 .def_59)))
(let ((.def_234 (and .def_226 .def_233)))
(let ((.def_235 (= b.bool_atom__AT0 .def_234)))
(let ((.def_303 (and .def_235 .def_302)))
(let ((.def_307 (and .def_303 .def_306)))
(let ((.def_308 (and .def_196 .def_307)))
(let ((.def_309 (and .def_199 .def_308)))
(let ((.def_310 (or .def_176 .def_309)))
(let ((.def_311 (or b.EVENT.1__AT0 .def_310)))
(let ((.def_320 (and .def_311 .def_319)))
(let ((.def_344 (and .def_320 .def_343)))
(let ((.def_183 (= b.time__AT0 b.time__AT1)))
(let ((.def_197 (and .def_183 .def_196)))
(let ((.def_200 (and .def_197 .def_199)))
(let ((.def_203 (and .def_200 .def_202)))
(let ((.def_206 (and .def_203 .def_205)))
(let ((.def_218 (and .def_206 .def_217)))
(let ((.def_222 (and .def_218 .def_221)))
(let ((.def_223 (or .def_52 .def_222)))
(let ((.def_186 (* (- 1.0) b.time__AT1)))
(let ((.def_189 (+ b.delta__AT0 .def_186)))
(let ((.def_190 (+ b.time__AT0 .def_189)))
(let ((.def_191 (= .def_190 0.0 )))
(let ((.def_192 (or .def_178 .def_191)))
(let ((.def_193 (or b.EVENT.1__AT0 .def_192)))
(let ((.def_184 (or .def_176 .def_183)))
(let ((.def_185 (or b.EVENT.1__AT0 .def_184)))
(let ((.def_194 (and .def_185 .def_193)))
(let ((.def_224 (and .def_194 .def_223)))
(let ((.def_180 (= .def_178 b.event_is_timed__AT1)))
(let ((.def_177 (= b.event_is_timed__AT0 .def_176)))
(let ((.def_181 (and .def_177 .def_180)))
(let ((.def_225 (and .def_181 .def_224)))
(let ((.def_345 (and .def_225 .def_344)))
(let ((.def_349 (and .def_345 .def_348)))
(let ((.def_353 (and .def_349 .def_352)))
(let ((.def_354 (and .def_52 .def_353)))
(let ((.def_372 (and .def_354 .def_371)))
(let ((.def_376 (and .def_372 .def_375)))
(let ((.def_76 (* (- 1.0) b.speed_x__AT0)))
(let ((.def_77 (* b.speed_x__AT0 .def_76)))
(let ((.def_78 (* (- 1.0) .def_77)))
(let ((.def_109 (* 2.0 .def_78)))
(let ((.def_110 (* b.delta__AT0 .def_109)))
(let ((.def_112 (* 5.0 .def_110)))
(let ((.def_91 (* b.speed_x__AT0 .def_58)))
(let ((.def_116 (* (- 5.0) .def_91)))
(let ((.def_122 (+ .def_116 .def_112)))
(let ((.def_86 (* b.x__AT0 .def_76)))
(let ((.def_114 (* (- 5.0) .def_86)))
(let ((.def_123 (+ .def_114 .def_122)))
(let ((.def_124 (+ .def_118 .def_123)))
(let ((.def_125 (+ .def_120 .def_124)))
(let ((.def_144 (<= .def_125 0.0 )))
(let ((.def_145 (not .def_144)))
(let ((.def_92 (* (- 1.0) .def_91)))
(let ((.def_87 (* (- 1.0) .def_86)))
(let ((.def_128 (+ .def_87 .def_92)))
(let ((.def_129 (+ b.speed_y__AT0 .def_128)))
(let ((.def_142 (<= .def_129 0.0 )))
(let ((.def_169 (or .def_142 .def_145)))
(let ((.def_130 (<= 0.0 .def_129)))
(let ((.def_131 (not .def_130)))
(let ((.def_126 (<= 0.0 .def_125)))
(let ((.def_168 (or .def_126 .def_131)))
(let ((.def_170 (and .def_168 .def_169)))
(let ((.def_167 (<= (- (/ 49 10)) .def_77)))
(let ((.def_171 (or .def_167 .def_170)))
(let ((.def_127 (not .def_126)))
(let ((.def_164 (or .def_127 .def_130)))
(let ((.def_143 (not .def_142)))
(let ((.def_163 (or .def_143 .def_144)))
(let ((.def_165 (and .def_163 .def_164)))
(let ((.def_162 (<= .def_77 (- (/ 49 10)))))
(let ((.def_166 (or .def_162 .def_165)))
(let ((.def_172 (and .def_166 .def_171)))
(let ((.def_157 (and .def_142 .def_144)))
(let ((.def_156 (and .def_126 .def_130)))
(let ((.def_158 (or .def_156 .def_157)))
(let ((.def_93 (* b.delta__AT0 .def_92)))
(let ((.def_94 (* 10.0 .def_93)))
(let ((.def_88 (* b.delta__AT0 .def_87)))
(let ((.def_89 (* 10.0 .def_88)))
(let ((.def_101 (+ .def_89 .def_94)))
(let ((.def_79 (* .def_75 .def_78)))
(let ((.def_80 (* 10.0 .def_79)))
(let ((.def_102 (+ .def_80 .def_101)))
(let ((.def_103 (+ .def_84 .def_102)))
(let ((.def_104 (+ .def_74 .def_103)))
(let ((.def_97 (* (- 10.0) .def_59)))
(let ((.def_105 (+ .def_97 .def_104)))
(let ((.def_106 (+ .def_99 .def_105)))
(let ((.def_136 (<= .def_106 0.0 )))
(let ((.def_150 (not .def_136)))
(let ((.def_134 (<= b.y__AT0 .def_59)))
(let ((.def_151 (or .def_134 .def_150)))
(let ((.def_60 (<= .def_59 b.y__AT0)))
(let ((.def_148 (not .def_60)))
(let ((.def_107 (<= 0.0 .def_106)))
(let ((.def_149 (or .def_107 .def_148)))
(let ((.def_152 (and .def_149 .def_151)))
(let ((.def_146 (or .def_143 .def_145)))
(let ((.def_147 (not .def_146)))
(let ((.def_153 (or .def_147 .def_152)))
(let ((.def_138 (not .def_107)))
(let ((.def_139 (or .def_60 .def_138)))
(let ((.def_135 (not .def_134)))
(let ((.def_137 (or .def_135 .def_136)))
(let ((.def_140 (and .def_137 .def_139)))
(let ((.def_132 (or .def_127 .def_131)))
(let ((.def_133 (not .def_132)))
(let ((.def_141 (or .def_133 .def_140)))
(let ((.def_154 (and .def_141 .def_153)))
(let ((.def_108 (and .def_60 .def_107)))
(let ((.def_155 (and .def_108 .def_154)))
(let ((.def_159 (and .def_155 .def_158)))
(let ((.def_173 (and .def_159 .def_172)))
(let ((.def_174 (and .def_67 .def_173)))
(let ((.def_68 (and .def_60 .def_67)))
(let ((.def_55 (or .def_52 .def_54)))
(let ((.def_45 (or .def_33 .def_35)))
(let ((.def_49 (or b.counter.3__AT0 .def_45)))
(let ((.def_46 (or b.counter.2__AT0 .def_45)))
(let ((.def_44 (or .def_35 .def_38)))
(let ((.def_47 (and .def_44 .def_46)))
(let ((.def_48 (or .def_41 .def_47)))
(let ((.def_50 (and .def_48 .def_49)))
(let ((.def_56 (and .def_50 .def_55)))
(let ((.def_69 (and .def_56 .def_68)))
(let ((.def_36 (and .def_33 .def_35)))
(let ((.def_39 (and .def_36 .def_38)))
(let ((.def_42 (and .def_39 .def_41)))
(let ((.def_30 (= b.speed_y__AT0 1.0 )))
(let ((.def_27 (= b.speed_x__AT0 1.0 )))
(let ((.def_23 (= b.y__AT0 10.0 )))
(let ((.def_19 (= b.x__AT0 0.0 )))
(let ((.def_15 (= b.time__AT0 0.0 )))
(let ((.def_17 (and .def_15 b.event_is_timed__AT0)))
(let ((.def_20 (and .def_17 .def_19)))
(let ((.def_24 (and .def_20 .def_23)))
(let ((.def_28 (and .def_24 .def_27)))
(let ((.def_31 (and .def_28 .def_30)))
(let ((.def_43 (and .def_31 .def_42)))
(let ((.def_70 (and .def_43 .def_69)))
(let ((.def_6 (or .def_4 b.counter.1__AT2)))
(let ((.def_9 (or .def_6 .def_8)))
(let ((.def_11 (or .def_9 b.counter.3__AT2)))
(let ((.def_12 (not .def_11)))
(let ((.def_71 (and .def_12 .def_70)))
(let ((.def_175 (and .def_71 .def_174)))
(let ((.def_377 (and .def_175 .def_376)))
(let ((.def_474 (and .def_377 .def_473)))
(let ((.def_660 (and .def_474 .def_659)))
(let ((.def_757 (and .def_660 .def_756)))
.def_757))))))))))))))))))))))))))))))))))))))))))))))))))))))))))))))))))))))))))))))))))))))))))))))))))))))))))))))))))))))))))))))))))))))))))))))))))))))))))))))))))))))))))))))))))))))))))))))))))))))))))))))))))))))))))))))))))))))))))))))))))))))))))))))))))))))))))))))))))))))))))))))))))))))))))))))))))))))))))))))))))))))))))))))))))))))))))))))))))))))))))))))))))))))))))))))))))))))))))))))))))))))))))))))))))))))))))))))))))))))))))))))))))))))))))))))))))))))))))))))))))))))))))))))))))))))))))))))))))))))))))))))))))))))))))))))))))))))))))))))))))))))))))))))))))))))))))))))))))))))))))))))))))))))))))))))))))))))))))))))))
(check-sat)
(exit)
